% Instancia Pequeñas #2
% Generada el 2025-10-21 19:12:35

num_trabajadores = 9;
horizonte_dias = 5;
num_semanas = 1;

demanda = array2d(1..horizonte_dias, 1..3, [
  4, 2, 2,
  4, 4, 2,
  4, 4, 3,
  4, 3, 2,
  3, 2, 2
]);

puntajes = array3d(1..num_trabajadores, 1..horizonte_dias, 1..3, [
  2, 7, 5,
  10, 1, 7,
  9, 7, 9,
  0, 8, 6,
  9, 5, 9,
  8, 6, 6,
  2, 0, 1,
  1, 6, 2,
  1, 2, 8,
  7, 2, 6,
  9, 8, 4,
  9, 2, 6,
  1, 0, 9,
  0, 2, 0,
  2, 4, 4,
  1, 8, 9,
  1, 9, 10,
  10, 10, 0,
  1, 9, 7,
  10, 5, 5,
  8, 10, 7,
  2, 2, 1,
  5, 0, 9,
  4, 5, 2,
  10, 9, 1,
  8, 10, 1,
  4, 7, 5,
  6, 0, 7,
  6, 9, 1,
  5, 2, 10,
  1, 10, 2,
  9, 4, 1,
  8, 6, 7,
  9, 0, 2,
  0, 1, 1,
  2, 0, 5,
  1, 8, 7,
  4, 7, 5,
  6, 1, 0,
  1, 3, 10,
  6, 3, 10,
  9, 6, 4,
  9, 9, 6,
  5, 6, 5,
  0, 2, 8
]);
